1000 1846
1 2 3 4 5 6 7 8 9 10 11 12 13
0 14 15 16 17 18 19 20 21 22 23 24 25 26 27 28 29 30 31 32 33 34 35 36 37 38 39 40 41 42 43 44 45 46 47 48 49 50 51 52 53 54 55 56 57 58 59 60 61 62 63 64 65 66 67 68 69 70 71 72 73 74 75 76 77 78 79 80 81 82 83 84 85 86 87 88 89 90 91 92 93 94 95 96 97 98 99 100 101 102 103 104 105 106 107 108 109 110 111 112 113 114 115 116
0 117 118 119 120 121 122 123 124 125 126 127 128 129 130 131 132 133 134 135 136 137 138 139 140 141 142 143 144 145 146 147 148 149 150 151 152 153 154 155 156 157 158 159 160 161 162 163 164 165 166 167 168 169 170 171 172 173 174 175 176 177 178 179 180 181 182 183
0 184 185 186 187 188 189 190 191 192 193 194 195 196 197 198 199 200 201 202 203 204 205 206
0 207 208 209 210 211 212 213 214 215 216 217 218 219 220 221 222 223 224 225 226 227 228 229 230 231 232 233 234 235 236 237 238 239 240 241 242 243 244 245 246 247 248 249 250 251 252 253 254 255 256 257 258 259 260 261 262 263 264 265 266 267 268 269 270 271 272 273 274 275 276 277 278 279 280 281 282 283 284 285 286 287 288 289 290 291 292 293 294 295 296 297 298 299 300 301 302 303 304 305 306 307 308 309 310 311 312 313 314 315 316 317 318 319 320 321 322 323 324 325 326 327 328 329 330 331 332 333 334 335 336 337 338 339 340 341 342 343 344 345 346 347 348 349 350 351 352 353 354 355 356 357 358 359 360 361 362 363 364 365 366 367 368 369 370 371 372 373 374 375 376 377
0 378 379 380 381 382 383 384 385 386 387 388 389 390 391 392 393 394 395 396 397 398
0 399 400 401 402 403 404 405 406 407 408 409 410 411 412 413 414 415 416 417 418 419 420 421
0 8 12 422 423 424 425 426 427 428 429 430 431 432 433 434 435 436 437 438 439 440 441 442 443 444 445 446 447 448 449 450 451 452 453 454 455 456 457 458 459 460 461 462 463 464 465 466 467 468 469 470 471 472 473 474 475 476 477 478 479 480 481 482 483 484 485 486 487 488 489 490 491 492 493 494 495 496 497 498
0 7 12 433 499 500 501 502 503 504 505 506 507 508 509 510 511 512 513 514 515 516 517 518 519
0 520 521 522 523 524 525 526 527 528 529 530 531 532 533 534 535 536 537 538 539 540 541 542 543 544
0 545 546 547 548 549 550 551 552 553 554 555 556 557 558 559 560 561
0 424 462 467 470 562 563 564 565 566 567 568 569 570 571 572 573 574 575 576 577 578 579 580 581 582 583 584 585 586 587 588 589 590 591 592 593 594 595 596 597 598 599 600 601 602 603 604 605 606 607 608 609 610 611 612 613 614 615 616 617 618 619 620 621 622 623 624 625 626 627 628 629 630 631 632
0 7 8 428 433 438 444 447 458 463 465 502 514 581 633 634 635 636 637 638 639 640 641 642 643 644 645 646 647 648 649 650 651 652 653 654 655 656 657 658 659 660 661 662 663 664 665 666 667 668 669 670 671 672
0 673 674 675 676 677 678 679 680 681 682 683 684 685 686 687 688 689 690 691 692 693 694 695 696 697 698 699 700 701 702 703 704 705 706 707
1 606 708 709 710 711 712 713 714 715 716 717 718 719 720 721 722 723 724 725 726 727 728 729 730 731 732 733 734 735 736 737 738 739 740 741 742 743 744 745 746 747 748 749 750 751 752 753 754 755 756 757 758 759 760 761 762 763 764 765 766 767 768 769 770 771 772 773 774 775 776 777 778 779 780 781 782 783 784 785 786 787 788 789
1 790 791 792 793 794 795 796 797 798 799 800 801 802 803 804 805 806 807 808 809 810 811 812 813 814 815 816 817 818 819 820 821 822 823 824
1 825 826 827 828 829 830 831 832 833 834 835 836 837 838 839 840 841 842 843 844 845 846 847 848 849 850 851 852 853 854 855 856 857 858 859 860 861 862 863 864 865 866 867 868 869 870 871 872
1 873 874 875 876 877 878 879 880
1 881 882 883 884 885 886 887 888 889 890 891 892 893 894 895 896 897 898 899 900 901 902 903 904 905 906 907 908 909 910 911 912 913 914 915 916 917 918 919 920 921 922 923 924 925 926 927 928 929 930 931 932 933 934 935 936 937 938 939 940 941 942 943 944 945 946 947 948 949 950 951 952 953 954 955 956
1 957 958 959 960 961 962 963 964 965 966 967 968 969 970 971 972 973 974 975
1 976 977 978 979 980 981 982 983 984 985 986 987 988 989 990 991 992 993 994 995 996 997 998 999
1
1
1
1 882 943
1
1
1
1
1 839 853
1 815
1 54
1 63
1
1 574
1
1
1
1
1
1 93
1
1 123 125
1
1
1 417 742
1
1
1
1 484 570 574
1
1
1
1 73 95 100
1 31
1 285
1
1
1
1
1
1 110 389
1
1 32 112 809 817
1
1
1
1 110
1 407
1
1
1
1
1 53
1
1
1
1 925
1
1 417
1
1
1
1
1
1
1
1
1
1
1
1
1 897
1 40
1 217 910
1 53
1
1
1
1
1 53
1
1
1
1
1
1
1
1
1
1 61 67 484
1
1 63 794
1 703 910
1
1
1
2 384
2
2
2
2 698
2
2 42
2
2 42
2 162 164 174
2 179
2 146 182
2 148
2
2
2 948
2
2
2
2
2
2
2 162 187
2
2
2
2
2
2
2 128
2
2 129 543
2 161
2
2
2 162
2 160
2
2
2
2 179
2
2
2 153 351
2 149 179 182
2 126 139 152 164 174 378
2
2 126 162
2
2
2
2 180
2
2
2
2
2
2 126 162
2 384 408 418
2
2
2
2 127 157 161 182
2 168 182
2
2 128 161 179 180
2
3 188 191 196 199 201
3 206
3 206
3 139 199 206 436
3 184 191 194 196 201 202
3
3
3 184 188 192 194 196 199 201 202
3 191 199 206
3
3 188 191 196 199 201
3 196
3 184 188 191 194 195 199 201 202
3
3
3 184 187 191 192 194 196 201 202 206
3
3 184 188 191 194 196 199 202
3 188 191 196 199 201
3
3
3
3 185 186 187 192 199
4
4
4
4
4
4
4
4 570 693
4
4
4 94
4 755
4 234
4
4
4
4 225 232
4
4 223
4
4
4
4
4
4 337
4 223
4 234
4 219 233 304 358 363
4
4
4 536
4
4
4
4
4
4
4
4
4
4 772
4
4
4
4
4
4
4
4 366
4 320
4
4
4 346
4 268
4
4
4
4
4
4
4
4 260
4
4
4 285 309
4 333 713
4
4
4
4
4
4
4
4
4
4 332
4
4
4 55 271 807
4
4
4
4
4
4
4
4 306
4
4
4 808
4
4
4
4
4
4
4
4 234
4
4 293
4
4
4 271
4
4
4
4
4
4
4
4
4
4
4 256
4
4 465 608
4
4
4 810
4
4
4
4
4
4
4 282
4 272
4
4
4
4 231
4
4
4
4
4
4 711
4
4
4 259
4
4
4
4
4 160
4
4
4
4
4
4
4 234
4
4
4
4
4 234
4
4
4 255
4 587 632
4
4
4
4
4
4
4
4
4
4
5 162 383 387
5
5
5
5 383
5 378 382 386 387 388 393 395 398
5 117 175
5
5 383 387 393 398
5 378 383 386 393 395 398
5 383
5 61
5
5
5 426
5 383 386 387 395 398
5
5 383 387 393
5
5
5 383 386 387 393
6 540
6
6
6
6
6 420
6
6
6 68
6 175 410 418
6
6 408 418
6
6
6 761
6
6
6
6 45 79 520
6 175 408 410
6
6 404
6
7 693
7 427 441 444 446 449 457 461 478 483 493 512 602
7 11 437 459 467 470 571 572 574 581 586 589 608 613 619
7 460 614
7 392
7 423 441 444 446 449 457 461 487 493
7 12 465 661 667
7
7 464
7
7 444
7 8 12 515
7 444 459
7
7 187 440 453 488
7 424 444 463 599 617 619 627
7 12 635 651
7
7 436 453 477 488 489
7 423 427 444 446 449 461 468 478 483 493 569
7 476 663
7 449
7 12 423 427 432 434 437 441 446 448 449 451 457 459 463 478 483 487 493
7 498
7 423 427 441 444 449 454 461 478 483 487
7 12
7 444
7 423 427 441 443 444 446 478 483 487 493
7
7 444 459 865
7
7 436 440 477 488 489
7 446
7 464 568 581 584 596 608 609 613
7 489
7 423 427 444 487 490 493 587
7 12 633 639 641 645 658 670
7 424 434 444 451 462 463 464 572 581 589
7 425 464 574
7 423 427 441 446 466 468 484 620 632
7 11 459 464 467 470 576 589 604
7 12 437 444 459 663
7 430 455 459 460 462 466 476 571 579 581 584 607 608 609 613 615 637
7 12 322 428 661 667
7 461 464 468
7 11 424 462 470 482 572 574 584 589 595 608 614 619 626
7 441 461 466 508
7
7 11 424 462 467 482 502 663
7 513 517
7
7
7
7 580
7 442 464 581 615
7 440 453 492
7 423 441 444 446 449
7
7
7
7 467 470 576 589
7 423 441 444 446 449 487
7 49 110 461 568 580 620 631
7 486
7 485 497
7 427 444 446 449 457 483 490 493
7 436 440 453 489
7 440 453 456 488 492
7 457 487
7
7 477 489
7 423 427 441 444 449 457 487 592 598 631
7
7
7
7 486
7 445 573 622
8
8
8
8 12 470 514 607 663
8
8
8 508 509 564 577
8 511
8 508 616
8 468 505 507
8 505 511
8 516
8 506 509 512 515 590 620
8 423 511
8 471
8 12 502 579 581 613 619 650
8 433 511 517
8 510
8 471 515 562
8
8
9 417
9 544
9
9
9
9
9
9 811
9
9
9
9
9
9
9
9
9 237
9
9
9
9 399
9
9
9 148
9 521
10
10 547 548
10 546 548 740
10 546 547
10
10
10 556 558
10
10
10
10
10 551 557 558
10 556
10 551 556
10
10
10
11 517 570 592 629
11 616
11 505 629
11
11 584 589 607 608 615 626
11
11 455 484 615
11 441 624
11 49 214 562
11 424 464 572 579 581 584 595 603 607 608 613 630 637
11 424 459 467 571 574 579 581 584 587 595 603 608 609 611 613 615 619 620 625 626 630 632 637 663
11 498
11 34 49 424 460 467 572 579 581 584 592 595 603 608 609 613 614 615 619 626 630 637 653
11 601
11 462 482 589 608 626
11 505 592 594 615 625 629
11 626
11 464 514 571 572 574 581 595 603 607 608 613 615 619 621 625 663
11 475 484 657
11 12 424 455 459 464 476 514 571 572 574 579 584 588 595 598 600 603 608 609 613 615 619 625 626 629 630 631 637 653
11
11
11 455 464 467 566 571 572 574 581 586 589 595 598 603 607 613 615 619 620 621
11 601
11 424 584 608 629
11 367 457 572 595 608 613 625
11 581 608 613 615
11 424 459 462 467 482 566 576 584 604 608 614 626
11 511
11 607
11 493 562 574 577 609 623 629
11 620
11 577 629
11 467 571 572 574 579 581 584 587 603 608 613 614 615 619 625
11 455
11 613 615
11 493 581 584 600 615 631
11 437 617 651
11 581 598 615
11 575 585
11 423
11 571 572 574 579 581 584 595 608 613 615 619 630 637
11 462 589 626
11
11 14 765
11 464 502 566 571 579 584 591 608 612 613 629 630 637 650
11 322 424 455 464 467 566 571 572 574 576 579 581 586 587 588 589 595 603 607 609 611 613 615 619 626 630 632 637 650
11 455 464 572 574 581 592 608 619 629
11
11 572 608 613 619 663
11 607
11 424 455 464 514 571 572 574 579 581 584 587 588 595 597 603 607 608 611 615 619 621 625 626 630 631 637 650 661 663
11 425 467 574 589 595 651
11 464 476 566 568 572 574 577 579 581 584 588 595 597 598 600 603 608 613 619 626 630 631
11 507 563
11 437 599 625 651
11
11 424 437 467 514 572 574 579 581 584 595 603 608 609 611 613 615 625 626 630 637
11 461 484 511 572 584 593
11 579 584 613
11 498
11 592 629 650
11 569
11 572 577 579 581 587 595 613 617 619 626 651
11 467 566 572 574 576 578 581 589 604 608 613 615 619 625
11 437 651
11
11 562 564 577 581 586 592 594 607 609 623 637
11 571 572 574 581 603 607 608 613 615 619
11 484 493 581 598 613 615
11 367 461 572 608
12 458
12
12 438 653 655
12
12 464 571 572 574 581 603 607 608 613 619 629
12 650 653
12 458
12 967
12 458 658
12
12
12
12 458
12
12
12
12
12 514 607 608 613 623 638 661
12 438 599 614 617 625 627
12
12 574 581 635 638
12
12 635
12
12 580
12 458 641
12
12
12 428 465 613 650
12
12 442 463 470 502 572 579 611 613
12
12
12
12 428 465
12
12
12 458
12
12
13 700 705
13
13 678 688 696 701
13 684 686 691 702 706
13
13 675 688 701
13
13
13 694
13 707 885
13 697 699 700
13 676 685 686 691 692 702 706
13 684 691 700
13 676 684 691 706
13 688
13 675 678 687 696 701
13 694
13
13 676 684 685 686 692 706
13 684 691 706
13 214 422
13 681 689 704
13
13 675 688 701
13 683 700
13 121
13 683
13 673 683 685 697
13 675 678 688 696
13 676 684
13 113 707
13 694
13 673
13 676 684 686 691 692
13 682 703
14
14
14 721 759 780 782
14 343
14 767
14 272
14
14 753
14
14 725
14 730
14 732
14
14 710 780 782
14
14
14
14 717
14
14 747
14 732 734 743 749 775 789
14
14 718 776
14 765 786
14 719 728 734 742 743 749 761 768 775 776 789
14
14 728 732 749 769 789
14
14
14
14 768
14 741 747 748
14 547
14 739
14 45 732 775
14 728 732 775 776
14
14
14
14 727 739
14 739
14 728 732 734 768 769 789
14
14 773
14
14 715
14
14 218
14
14
14
14 710 780 782
14
14 413 732 783
14
14 769
14
14 606 731 786 788
14
14 712
14 732 738 749 775
14 734 749 763
14
14
14 247
14 751 777
14
14 728 732 742 743 768 776
14 730 732 743 775
14 773
14
14
14 710 721 759 782
14
14 710 721 759 780
14 761
14
14
14 731 765
14
14 765
14 728 732 734 749
15 791 806 822
15 790 794 798 800 801 804 809 812 813 816 818 819 820
15 808
15
15 112 791 795 801 804 813 820
15 794 801 813 816
15 797 814
15 796 807 809 814 824
15 791 801 804 813 820
15 806
15 791 804 820
15 791 794 795 798 804 812 813 814 815 820
15 809
15 816
15 791 794 798 800 801 809 812 820
15 811 882
15 790 799 822
15 285 797
15 296 792 809
15 63 791 797 802 804 808 821 822 824
15 325 822
15 527 805 814 815
15 791 801 804
15 791 794 795 798 801 820
15 796 797 801 811 815
15 30 801 811 814
15 791 795 803 818 823 824
15 63 820 821 823 824
15 791 816
15 791
15 791 794 798 800 801 804 813 817
15 809 817 823
15 790 806 809 810 823 824
15 816 817 821 822 824
15 797 809 816 817 822 823
16
16
16
16
16 833 835 846 850 856 861
16 832 868
16
16 830 843 857
16 829 835 845 846 850 856 861
16 841
16 829 833 837 845 846 850 861 868
16
16 835
16
16 29 845 846 870
16 852
16 834
16 848 859
16 832
16
16 833 835 839 870 871
16 829 833 835 839 850 856 861
16
16 842
16
16 829 833 835 846 861
16
16 840
16 29 870
16 868
16
16 829 833 846
16 832
16
16 842
16
16 829 833 835 846 850
16
16
16 868
16 451
16 870
16
16 830 835 854 864 870
16
16 839 845 853 866 868 871
16 845 870
16
17 874
17 873
17 877
17
17 875
17
17
17
18 902 934
18 24 805
18 923 954
18
18 682
18 954
18
18
18 906
18
18 954
18 943
18
18
18
18
18 92
18
18
18
18
18 881 931 934
18
18
18 915 923 954
18 889
18
18
18
18 94 113
18
18
18
18 933
18 905 929
18
18 931 954
18
18
18
18 954
18
18 883 905 946
18
18 77
18
18
18
18 915
18
18 902 917
18
18 914
18 881 902
18
18
18
18
18
18
18
18
18 24 892
18 956
18
18 923
18 954
18 132
18
18
18
18 954
18
18 883 886 891 905 917 921 947 952
18
18 944
19
19 965 969
19
19
19
19
19
19
19 958
19
19 640
19
19 958
19
19
19
19
19
19
20
20
20 983 997
20
20
20
20
20 978 986
20
20
20 983 997
20
20
20 998
20
20
20
20
20
20
20
20 978 986
20 989
20
